Rodando pra 1h

Optimize a model with 360087 rows, 539172 columns and 13281055 nonzeros
Coefficient statistics:
  Matrix range    [1e+00, 1e+04]
  Objective range [5e-01, 5e-01]
  Bounds range    [1e+00, 1e+04]
  RHS range       [1e+00, 1e+04]
Presolve removed 2 rows and 2 columns (presolve time = 5s) ...
Presolve removed 3 rows and 3 columns (presolve time = 16s) ...
Presolve removed 6 rows and 6 columns (presolve time = 21s) ...
Presolve removed 6 rows and 6 columns (presolve time = 28s) ...
Presolve removed 6 rows and 6 columns (presolve time = 30s) ...
Presolve removed 6 rows and 6 columns (presolve time = 37s) ...
Presolve removed 6 rows and 6 columns (presolve time = 41s) ...
Presolve removed 6 rows and 6 columns (presolve time = 47s) ...
Presolve removed 6 rows and 6 columns (presolve time = 51s) ...
Presolve removed 6 rows and 6 columns (presolve time = 57s) ...
Presolve removed 6 rows and 6 columns (presolve time = 61s) ...
Presolve removed 6 rows and 6 columns (presolve time = 67s) ...
Presolve removed 6 rows and 6 columns (presolve time = 71s) ...
Presolve removed 6 rows and 6 columns (presolve time = 77s) ...
Presolve removed 6 rows and 6 columns (presolve time = 81s) ...
Presolve removed 6 rows and 6 columns (presolve time = 87s) ...
Presolve removed 6 rows and 6 columns (presolve time = 91s) ...
Presolve removed 6 rows and 6 columns (presolve time = 95s) ...
Presolve removed 6 rows and 6 columns (presolve time = 101s) ...
Presolve removed 6 rows and 6 columns (presolve time = 105s) ...
Presolve removed 6 rows and 6 columns (presolve time = 111s) ...
Presolve removed 6 rows and 6 columns (presolve time = 115s) ...
Presolve removed 6 rows and 6 columns (presolve time = 121s) ...
Presolve removed 6 rows and 6 columns (presolve time = 132s) ...
Presolve removed 6 rows and 6 columns (presolve time = 150s) ...
Presolve removed 6 rows and 6 columns
Presolve time: 149.66s
Presolved: 360081 rows, 539166 columns, 13281019 nonzeros
Variable types: 359400 continuous, 179766 integer (179764 binary)
Optimize a model with 360081 rows, 539166 columns and 13281019 nonzeros
Coefficient statistics:
  Matrix range    [1e+00, 1e+04]
  Objective range [5e-01, 5e-01]
  Bounds range    [1e+00, 1e+04]
  RHS range       [1e+00, 2e+04]
Presolve removed 0 rows and 0 columns (presolve time = 5s) ...
Presolved: 360081 rows, 539166 columns, 13281019 nonzeros


Root simplex log...

Iteration    Objective       Primal Inf.    Dual Inf.      Time
       0    0.0000000e+00   1.810585e+03   0.000000e+00    182s
    1254    0.0000000e+00   0.000000e+00   0.000000e+00    183s

Root relaxation: objective 0.000000e+00, 1254 iterations, 10.19 seconds

    Nodes    |    Current Node    |     Objective Bounds      |     Work
 Expl Unexpl |  Obj  Depth IntInf | Incumbent    BestBd   Gap | It/Node Time

     0     0    0.00000    0  619          -    0.00000      -     - 3600s

Explored 0 nodes (147655 simplex iterations) in 3600.63 seconds
Thread count was 1 (of 4 available processors)

Time limit reached
Best objective -, best bound 0.000000000000e+00, gap -
Tempo: 3595.17 segundos

Error code = 10004
Var::get
